8337
40, 37, 39, 35, 36, 34, 46, 44, 16, 50, 20, 30, 2, 7, 42, 21, 17, 3, 41, 9, 10, 8, 19, 45, 32, 49, 1, 22, 18, 31, 23, 29, 47, 26, 28, 27, 13, 14, 52, 11, 51, 12, 33, 43, 4, 25, 6, 15, 5, 24, 48, 38
